NAME 
ROWS
 N  OBJ
 L  R0      
 E  R1      
 E  R2      
 E  R3      
 E  R4      
 E  R5      
 E  R6      
 E  R7      
 E  R8      
 E  R9      
 E  R10     
COLUMNS
    MARKER    'MARKER'                 'INTORG'
    I0(8)     OBJ       -90
    I0(8)     R0        59
    I0(8)     R1        2
    I0(8)     R2        19
    I0(8)     R3        9
    I0(8)     R4        11
    I0(8)     R5        15
    I0(8)     R6        10
    I0(8)     R10       1
    I1(8)     OBJ       -7
    I1(8)     R0        -94
    I1(8)     R1        16
    I1(8)     R2        5
    I1(8)     R3        7
    I1(8)     R4        3
    I1(8)     R5        16
    I1(8)     R6        -1
    I1(8)     R10       1
    I2(7)     OBJ       -160
    I2(7)     R0        172
    I2(7)     R1        9
    I2(7)     R2        8
    I2(7)     R3        13
    I2(7)     R4        3
    I2(7)     R5        16
    I2(7)     R10       1
    I3(6)     OBJ       61
    I3(6)     R0        75
    I3(6)     R2        17
    I3(6)     R4        -1
    I3(6)     R5        16
    I3(6)     R6        11
    I3(6)     R10       1
    I4(8)     OBJ       113
    I4(8)     R0        -40
    I4(8)     R1        18
    I4(8)     R2        15
    I4(8)     R3        9
    I4(8)     R4        5
    I4(8)     R5        8
    I4(8)     R6        6
    I4(8)     R10       1
    I5(5)     OBJ       -183
    I5(5)     R0        -86
    I5(5)     R3        12
    I5(5)     R5        12
    I5(5)     R6        18
    I5(5)     R10       1
    MARKER    'MARKER'                 'INTEND'
    C6(6)     OBJ       -5
    C6(6)     R1        4
    C6(6)     R2        9
    C6(6)     R3        10
    C6(6)     R5        8
    C6(6)     R6        -1
    C6(6)     R8        9
    C7(7)     OBJ       -2
    C7(7)     R0        8
    C7(7)     R1        11
    C7(7)     R2        13
    C7(7)     R3        10
    C7(7)     R4        19
    C7(7)     R7        -1
    C7(7)     R8        2
    C8(9)     OBJ       7
    C8(9)     R0        -6
    C8(9)     R1        9
    C8(9)     R3        18
    C8(9)     R4        2
    C8(9)     R5        3
    C8(9)     R6        2
    C8(9)     R7        7
    C8(9)     R8        19
    C8(9)     R9        14
    C9(5)     R0        -2
    C9(5)     R3        7
    C9(5)     R7        4
    C9(5)     R8        16
    C9(5)     R9        14
    C10(1)    R1        1
    C11(1)    R2        1
    C12(1)    R3        1
    C13(1)    R4        1
    C14(1)    R5        1
    C15(1)    R6        1
    C16(1)    R7        1
    C17(1)    R8        1
    C18(1)    R9        1
    C19(1)    R10       1
RHS
    RHS1      R0        86
    RHS1      R1        64
    RHS1      R2        98
    RHS1      R3        51
    RHS1      R4        82
    RHS1      R5        97
    RHS1      R6        99
    RHS1      R7        87
    RHS1      R8        66
    RHS1      R9        91
    RHS1      R10       2
BOUNDS
 UP BND1      I0(8)     1
 UP BND1      I1(8)     1
 UP BND1      I2(7)     1
 UP BND1      I3(6)     1
 UP BND1      I4(8)     1
 UP BND1      I5(5)     1
ENDATA
